17089 18720 18083
16680 15715 21683
20196 15781 19816
16476 18806 17170
19238 16047 21014
19766 17003 17863
19120 17702 20264
20200 16186 18017
18936 16265 21118
16479 14937 21798
18032 18392 19588
18843 18215 19254
18809 18194 19609
19450 16503 20821
20593 13960 18689
19866 16231 20545
19247 17874 19010
19378 17285 20177
20518 15037 19039
20246 15814 19163
19561 16228 20785
16311 15491 21784
17627 15747 21560
19256 16656 20894
20662 14163 18192
18519 18344 19349
19222 16932 20736
20590 15004 18397
18032 18095 20101
17335 18729 17345
20174 15847 19805
17634 18580 19369
20602 14954 17932
20529 15312 17780
18070 14974 21460
18039 16468 21268
17520 15126 21669
20318 15032 19807
17196 15255 21764
16195 18831 16307
17919 18542 18982
16742 15983 21580
20705 13236 17276
20247 15489 19957
19681 17057 19164
17977 16200 21371
18047 17021 21009
20018 15494 20364
